p cnf 160 864
1 -65 0
1 -66 0
65 -65 0
66 -66 0
17 -71 0
17 -72 0
71 -71 0
72 -72 0
33 -77 0
33 -78 0
77 -77 0
78 -78 0
49 -83 0
49 -84 0
83 -83 0
84 -84 0
2 -89 -65 0
-2 89 -65 0
2 89 -66 0
-2 -89 -66 0
18 -89 -71 0
-18 89 -71 0
18 89 -72 0
-18 -89 -72 0
34 -89 -77 0
-34 89 -77 0
34 89 -78 0
-34 -89 -78 0
50 -89 -83 0
-50 89 -83 0
50 89 -84 0
-50 -89 -84 0
3 -65 0
3 -66 0
65 -65 0
66 -66 0
19 -71 0
19 -72 0
71 -71 0
72 -72 0
35 -77 0
35 -78 0
77 -77 0
78 -78 0
51 -83 0
51 -84 0
83 -83 0
84 -84 0
4 -90 -65 0
-4 90 -65 0
4 90 -66 0
-4 -90 -66 0
20 -90 -71 0
-20 90 -71 0
20 90 -72 0
-20 -90 -72 0
36 -90 -77 0
-36 90 -77 0
36 90 -78 0
-36 -90 -78 0
52 -90 -83 0
-52 90 -83 0
52 90 -84 0
-52 -90 -84 0
5 -65 0
5 -66 0
65 -65 0
66 -66 0
21 -71 0
21 -72 0
71 -71 0
72 -72 0
37 -77 0
37 -78 0
77 -77 0
78 -78 0
53 -83 0
53 -84 0
83 -83 0
84 -84 0
6 -65 0
6 -66 0
65 -65 0
66 -66 0
22 -71 0
22 -72 0
71 -71 0
72 -72 0
38 -77 0
38 -78 0
77 -77 0
78 -78 0
54 -83 0
54 -84 0
83 -83 0
84 -84 0
7 -91 -65 0
-7 91 -65 0
7 91 -66 0
-7 -91 -66 0
23 -91 -71 0
-23 91 -71 0
23 91 -72 0
-23 -91 -72 0
39 -91 -77 0
-39 91 -77 0
39 91 -78 0
-39 -91 -78 0
55 -91 -83 0
-55 91 -83 0
55 91 -84 0
-55 -91 -84 0
8 -65 0
8 -66 0
65 -65 0
66 -66 0
24 -71 0
24 -72 0
71 -71 0
72 -72 0
40 -77 0
40 -78 0
77 -77 0
78 -78 0
56 -83 0
56 -84 0
83 -83 0
84 -84 0
9 -65 0
9 -66 0
65 -65 0
66 -66 0
25 -71 0
25 -72 0
71 -71 0
72 -72 0
41 -77 0
41 -78 0
77 -77 0
78 -78 0
57 -83 0
57 -84 0
83 -83 0
84 -84 0
10 -92 -65 0
-10 92 -65 0
10 92 -66 0
-10 -92 -66 0
26 -92 -71 0
-26 92 -71 0
26 92 -72 0
-26 -92 -72 0
42 -92 -77 0
-42 92 -77 0
42 92 -78 0
-42 -92 -78 0
58 -92 -83 0
-58 92 -83 0
58 92 -84 0
-58 -92 -84 0
11 -65 0
11 -66 0
65 -65 0
66 -66 0
27 -71 0
27 -72 0
71 -71 0
72 -72 0
43 -77 0
43 -78 0
77 -77 0
78 -78 0
59 -83 0
59 -84 0
83 -83 0
84 -84 0
-12 -65 0
-12 -66 0
65 -65 0
66 -66 0
-28 -71 0
-28 -72 0
71 -71 0
72 -72 0
-44 -77 0
-44 -78 0
77 -77 0
78 -78 0
-60 -83 0
-60 -84 0
83 -83 0
84 -84 0
13 -93 -65 0
-13 93 -65 0
13 93 -66 0
-13 -93 -66 0
29 -93 -71 0
-29 93 -71 0
29 93 -72 0
-29 -93 -72 0
45 -93 -77 0
-45 93 -77 0
45 93 -78 0
-45 -93 -78 0
61 -93 -83 0
-61 93 -83 0
61 93 -84 0
-61 -93 -84 0
14 -94 -65 0
-14 94 -65 0
14 94 -66 0
-14 -94 -66 0
30 -94 -71 0
-30 94 -71 0
30 94 -72 0
-30 -94 -72 0
46 -94 -77 0
-46 94 -77 0
46 94 -78 0
-46 -94 -78 0
62 -94 -83 0
-62 94 -83 0
62 94 -84 0
-62 -94 -84 0
15 -65 0
15 -66 0
65 -65 0
66 -66 0
31 -71 0
31 -72 0
71 -71 0
72 -72 0
47 -77 0
47 -78 0
77 -77 0
78 -78 0
63 -83 0
63 -84 0
83 -83 0
84 -84 0
16 -65 0
16 -66 0
65 -65 0
66 -66 0
32 -71 0
32 -72 0
71 -71 0
72 -72 0
48 -77 0
48 -78 0
77 -77 0
78 -78 0
64 -83 0
64 -84 0
83 -83 0
84 -84 0
-137 65 0
137 -65 0
-138 66 0
137 -66 0
-137 -65 0
-138 -66 0
-143 65 137 0
143 -65 0
143 -137 0
-144 66 138 0
144 -66 0
144 -138 0
-143 -71 0
-144 -72 0
-149 71 143 0
149 -71 0
149 -143 0
-150 72 144 0
150 -72 0
150 -144 0
-149 -77 0
-150 -78 0
-155 77 149 0
155 -77 0
155 -149 0
-156 78 150 0
156 -78 0
156 -150 0
-155 -83 0
-156 -84 0
155 0
156 0
1 -67 0
1 -68 0
67 -67 0
68 -68 0
17 -73 0
17 -74 0
73 -73 0
74 -74 0
33 -79 0
33 -80 0
79 -79 0
80 -80 0
49 -85 0
49 -86 0
85 -85 0
86 -86 0
2 -95 -67 0
-2 95 -67 0
2 95 -68 0
-2 -95 -68 0
18 -95 -73 0
-18 95 -73 0
18 95 -74 0
-18 -95 -74 0
34 -95 -79 0
-34 95 -79 0
34 95 -80 0
-34 -95 -80 0
50 -95 -85 0
-50 95 -85 0
50 95 -86 0
-50 -95 -86 0
3 -67 0
3 -68 0
67 -67 0
68 -68 0
19 -73 0
19 -74 0
73 -73 0
74 -74 0
35 -79 0
35 -80 0
79 -79 0
80 -80 0
51 -85 0
51 -86 0
85 -85 0
86 -86 0
4 -96 -67 0
-4 96 -67 0
4 96 -68 0
-4 -96 -68 0
20 -96 -73 0
-20 96 -73 0
20 96 -74 0
-20 -96 -74 0
36 -96 -79 0
-36 96 -79 0
36 96 -80 0
-36 -96 -80 0
52 -96 -85 0
-52 96 -85 0
52 96 -86 0
-52 -96 -86 0
5 -67 0
5 -68 0
67 -67 0
68 -68 0
21 -73 0
21 -74 0
73 -73 0
74 -74 0
37 -79 0
37 -80 0
79 -79 0
80 -80 0
53 -85 0
53 -86 0
85 -85 0
86 -86 0
6 -67 0
6 -68 0
67 -67 0
68 -68 0
22 -73 0
22 -74 0
73 -73 0
74 -74 0
38 -79 0
38 -80 0
79 -79 0
80 -80 0
54 -85 0
54 -86 0
85 -85 0
86 -86 0
7 -97 -67 0
-7 97 -67 0
7 97 -68 0
-7 -97 -68 0
23 -97 -73 0
-23 97 -73 0
23 97 -74 0
-23 -97 -74 0
39 -97 -79 0
-39 97 -79 0
39 97 -80 0
-39 -97 -80 0
55 -97 -85 0
-55 97 -85 0
55 97 -86 0
-55 -97 -86 0
8 -67 0
8 -68 0
67 -67 0
68 -68 0
24 -73 0
24 -74 0
73 -73 0
74 -74 0
40 -79 0
40 -80 0
79 -79 0
80 -80 0
56 -85 0
56 -86 0
85 -85 0
86 -86 0
9 -67 0
9 -68 0
67 -67 0
68 -68 0
25 -73 0
25 -74 0
73 -73 0
74 -74 0
41 -79 0
41 -80 0
79 -79 0
80 -80 0
57 -85 0
57 -86 0
85 -85 0
86 -86 0
10 -98 -67 0
-10 98 -67 0
10 98 -68 0
-10 -98 -68 0
26 -98 -73 0
-26 98 -73 0
26 98 -74 0
-26 -98 -74 0
42 -98 -79 0
-42 98 -79 0
42 98 -80 0
-42 -98 -80 0
58 -98 -85 0
-58 98 -85 0
58 98 -86 0
-58 -98 -86 0
11 -67 0
11 -68 0
67 -67 0
68 -68 0
27 -73 0
27 -74 0
73 -73 0
74 -74 0
43 -79 0
43 -80 0
79 -79 0
80 -80 0
59 -85 0
59 -86 0
85 -85 0
86 -86 0
12 -99 -67 0
-12 99 -67 0
12 99 -68 0
-12 -99 -68 0
28 -99 -73 0
-28 99 -73 0
28 99 -74 0
-28 -99 -74 0
44 -99 -79 0
-44 99 -79 0
44 99 -80 0
-44 -99 -80 0
60 -99 -85 0
-60 99 -85 0
60 99 -86 0
-60 -99 -86 0
13 -100 -67 0
-13 100 -67 0
13 100 -68 0
-13 -100 -68 0
29 -100 -73 0
-29 100 -73 0
29 100 -74 0
-29 -100 -74 0
45 -100 -79 0
-45 100 -79 0
45 100 -80 0
-45 -100 -80 0
61 -100 -85 0
-61 100 -85 0
61 100 -86 0
-61 -100 -86 0
14 -67 0
14 -68 0
67 -67 0
68 -68 0
30 -73 0
30 -74 0
73 -73 0
74 -74 0
46 -79 0
46 -80 0
79 -79 0
80 -80 0
62 -85 0
62 -86 0
85 -85 0
86 -86 0
15 -67 0
15 -68 0
67 -67 0
68 -68 0
31 -73 0
31 -74 0
73 -73 0
74 -74 0
47 -79 0
47 -80 0
79 -79 0
80 -80 0
63 -85 0
63 -86 0
85 -85 0
86 -86 0
16 -67 0
16 -68 0
67 -67 0
68 -68 0
32 -73 0
32 -74 0
73 -73 0
74 -74 0
48 -79 0
48 -80 0
79 -79 0
80 -80 0
64 -85 0
64 -86 0
85 -85 0
86 -86 0
-139 67 0
139 -67 0
-140 68 0
139 -68 0
-139 -67 0
-140 -68 0
-145 67 139 0
145 -67 0
145 -139 0
-146 68 140 0
146 -68 0
146 -140 0
-145 -73 0
-146 -74 0
-151 73 145 0
151 -73 0
151 -145 0
-152 74 146 0
152 -74 0
152 -146 0
-151 -79 0
-152 -80 0
-157 79 151 0
157 -79 0
157 -151 0
-158 80 152 0
158 -80 0
158 -152 0
-157 -85 0
-158 -86 0
157 0
158 0
1 -69 0
1 -70 0
69 -69 0
70 -70 0
17 -75 0
17 -76 0
75 -75 0
76 -76 0
33 -81 0
33 -82 0
81 -81 0
82 -82 0
49 -87 0
49 -88 0
87 -87 0
88 -88 0
2 -101 -69 0
-2 101 -69 0
2 101 -70 0
-2 -101 -70 0
18 -101 -75 0
-18 101 -75 0
18 101 -76 0
-18 -101 -76 0
34 -101 -81 0
-34 101 -81 0
34 101 -82 0
-34 -101 -82 0
50 -101 -87 0
-50 101 -87 0
50 101 -88 0
-50 -101 -88 0
3 -102 -69 0
-3 102 -69 0
3 102 -70 0
-3 -102 -70 0
19 -102 -75 0
-19 102 -75 0
19 102 -76 0
-19 -102 -76 0
35 -102 -81 0
-35 102 -81 0
35 102 -82 0
-35 -102 -82 0
51 -102 -87 0
-51 102 -87 0
51 102 -88 0
-51 -102 -88 0
4 -103 -69 0
-4 103 -69 0
4 103 -70 0
-4 -103 -70 0
20 -103 -75 0
-20 103 -75 0
20 103 -76 0
-20 -103 -76 0
36 -103 -81 0
-36 103 -81 0
36 103 -82 0
-36 -103 -82 0
52 -103 -87 0
-52 103 -87 0
52 103 -88 0
-52 -103 -88 0
5 -69 0
5 -70 0
69 -69 0
70 -70 0
21 -75 0
21 -76 0
75 -75 0
76 -76 0
37 -81 0
37 -82 0
81 -81 0
82 -82 0
53 -87 0
53 -88 0
87 -87 0
88 -88 0
6 -69 0
6 -70 0
69 -69 0
70 -70 0
22 -75 0
22 -76 0
75 -75 0
76 -76 0
38 -81 0
38 -82 0
81 -81 0
82 -82 0
54 -87 0
54 -88 0
87 -87 0
88 -88 0
7 -69 0
7 -70 0
69 -69 0
70 -70 0
23 -75 0
23 -76 0
75 -75 0
76 -76 0
39 -81 0
39 -82 0
81 -81 0
82 -82 0
55 -87 0
55 -88 0
87 -87 0
88 -88 0
8 -69 0
8 -70 0
69 -69 0
70 -70 0
24 -75 0
24 -76 0
75 -75 0
76 -76 0
40 -81 0
40 -82 0
81 -81 0
82 -82 0
56 -87 0
56 -88 0
87 -87 0
88 -88 0
9 -104 -69 0
-9 104 -69 0
9 104 -70 0
-9 -104 -70 0
25 -104 -75 0
-25 104 -75 0
25 104 -76 0
-25 -104 -76 0
41 -104 -81 0
-41 104 -81 0
41 104 -82 0
-41 -104 -82 0
57 -104 -87 0
-57 104 -87 0
57 104 -88 0
-57 -104 -88 0
10 -105 -69 0
-10 105 -69 0
10 105 -70 0
-10 -105 -70 0
26 -105 -75 0
-26 105 -75 0
26 105 -76 0
-26 -105 -76 0
42 -105 -81 0
-42 105 -81 0
42 105 -82 0
-42 -105 -82 0
58 -105 -87 0
-58 105 -87 0
58 105 -88 0
-58 -105 -88 0
11 -69 0
11 -70 0
69 -69 0
70 -70 0
27 -75 0
27 -76 0
75 -75 0
76 -76 0
43 -81 0
43 -82 0
81 -81 0
82 -82 0
59 -87 0
59 -88 0
87 -87 0
88 -88 0
12 -106 -69 0
-12 106 -69 0
12 106 -70 0
-12 -106 -70 0
28 -106 -75 0
-28 106 -75 0
28 106 -76 0
-28 -106 -76 0
44 -106 -81 0
-44 106 -81 0
44 106 -82 0
-44 -106 -82 0
60 -106 -87 0
-60 106 -87 0
60 106 -88 0
-60 -106 -88 0
13 -107 -69 0
-13 107 -69 0
13 107 -70 0
-13 -107 -70 0
29 -107 -75 0
-29 107 -75 0
29 107 -76 0
-29 -107 -76 0
45 -107 -81 0
-45 107 -81 0
45 107 -82 0
-45 -107 -82 0
61 -107 -87 0
-61 107 -87 0
61 107 -88 0
-61 -107 -88 0
14 -108 -69 0
-14 108 -69 0
14 108 -70 0
-14 -108 -70 0
30 -108 -75 0
-30 108 -75 0
30 108 -76 0
-30 -108 -76 0
46 -108 -81 0
-46 108 -81 0
46 108 -82 0
-46 -108 -82 0
62 -108 -87 0
-62 108 -87 0
62 108 -88 0
-62 -108 -88 0
15 -69 0
15 -70 0
69 -69 0
70 -70 0
31 -75 0
31 -76 0
75 -75 0
76 -76 0
47 -81 0
47 -82 0
81 -81 0
82 -82 0
63 -87 0
63 -88 0
87 -87 0
88 -88 0
16 -109 -69 0
-16 109 -69 0
16 109 -70 0
-16 -109 -70 0
32 -109 -75 0
-32 109 -75 0
32 109 -76 0
-32 -109 -76 0
48 -109 -81 0
-48 109 -81 0
48 109 -82 0
-48 -109 -82 0
64 -109 -87 0
-64 109 -87 0
64 109 -88 0
-64 -109 -88 0
-141 69 0
141 -69 0
-142 70 0
141 -70 0
-141 -69 0
-142 -70 0
-147 69 141 0
147 -69 0
147 -141 0
-148 70 142 0
148 -70 0
148 -142 0
-147 -75 0
-148 -76 0
-153 75 147 0
153 -75 0
153 -147 0
-154 76 148 0
154 -76 0
154 -148 0
-153 -81 0
-154 -82 0
-159 81 153 0
159 -81 0
159 -153 0
-160 82 154 0
160 -82 0
160 -154 0
-159 -87 0
-160 -88 0
159 0
160 0
